20
5
5
1
39 119
40 64
107 56
111 112
39 119
40 64
107 56
111 112
27 118
28 122
31 127
34 129
39 128
104 120
106 124
108 128
117 126
119 114
116 61
115 55
115 50
109 42
102 42
27 60
32 51
33 53
39 53
46 53
EOF